job_count = 26 ;
duration = [|10, 1|6, 1|14, 2|14, 6|13, 1|9, 9|16, 1|5, 5|9, 3|7, 3|18, 2|17, 7|3, 2|5, 4|7, 6|3, 5|8, 4|8, 6|13, 5|6, 1|11, 6|11, 9|16, 2|6, 4|2, 1|10, 5|] ;
machine_count = 2 ;
cost = [|10, 27|19, 33|18, 25|18, 22|19, 37|14, 35|18, 35|11, 33|16, 20|16, 35|10, 32|14, 24|10, 31|13, 36|11, 23|19, 26|17, 23|16, 30|14, 35|16, 27|12, 28|15, 38|18, 36|19, 33|15, 33|14, 30|] ;
deadline = [65, 65, 65, 65, 65, 65, 65, 65, 65, 65, 65, 65, 65, 65, 65, 65, 65, 65, 65, 65, 65, 65, 65, 65, 65, 65] ;
release = [0, 0, 0, 0, 0, 0, 0, 0, 0, 0, 0, 0, 0, 0, 0, 0, 0, 0, 0, 0, 0, 0, 0, 0, 0, 0] ;
resource = [|5, 5|2, 2|3, 3|4, 4|1, 1|2, 2|5, 5|4, 4|6, 6|8, 8|4, 4|6, 6|6, 6|7, 7|2, 2|2, 2|2, 2|9, 9|7, 7|7, 7|4, 4|1, 1|6, 6|9, 9|7, 7|6, 6|] ;
capacities = [10, 10] ;
